(declare-const x2 Int)
(declare-const x Bool)
(declare-fun r () String)
(declare-fun r2 () String)
(declare-fun a () String)
(declare-fun v () Bool)
(declare-fun ar () Int)
(assert (= (= x v) (str.in.re (str.substr a (mod x2 (* ar (- ar) (div ar x2) (div 0 x2))) 1) (str.to.re (str.substr r2 0 (str.len r))))))
(assert (or (forall ((V String)) (str.in_re r2 (str.to_re "A"))) (exists ((v String)) (not (str.in.re v (str.to.re (str.substr a 0 (str.len r))))))))
(check-sat)
